c 
c G(k,n,p) graph
c graph gen seed     : 654
c number of vertices : 25
c max number of edges: 500
c number of classes  : 2
c edge density       : 0.400000
c edge probability   : 0.800000
c data structure     : sparse
c
c           Graph Stats
c number of vertices  : 25
c nonisolated vertices: 25
c number of edges     : 112
c edge density        : 0.373333
c max degree          : 15
c avg degree          : 8.96
c min degree          : 4
p col 25 112
e 1 2
e 1 3
e 1 5
e 1 6
e 1 8
e 1 11
e 1 14
e 1 19
e 1 24
e 2 4
e 2 5
e 2 6
e 2 8
e 2 9
e 2 11
e 2 12
e 2 14
e 2 19
e 3 4
e 3 7
e 3 8
e 3 9
e 3 10
e 3 12
e 3 13
e 3 15
e 3 16
e 3 17
e 3 18
e 3 20
e 3 21
e 3 22
e 3 23
e 3 24
e 3 25
e 4 6
e 4 7
e 4 9
e 4 10
e 4 11
e 4 12
e 4 13
e 4 15
e 4 16
e 4 17
e 4 18
e 4 19
e 4 20
e 4 21
e 4 22
e 4 23
e 4 24
e 4 25
e 5 6
e 5 8
e 5 11
e 5 14
e 5 16
e 5 17
e 5 19
e 5 22
e 6 8
e 6 11
e 6 12
e 6 14
e 6 18
e 6 19
e 6 22
e 7 9
e 7 10
e 7 11
e 7 12
e 7 13
e 7 15
e 7 16
e 7 17
e 7 18
e 7 19
e 7 20
e 7 21
e 7 22
e 7 23
e 7 24
e 7 25
e 8 9
e 8 11
e 8 14
e 8 19
e 9 10
e 9 12
e 9 13
e 9 15
e 9 16
e 9 17
e 9 18
e 9 20
e 9 21
e 9 22
e 9 23
e 9 24
e 9 25
e 10 12
e 10 13
e 10 14
e 10 15
e 10 16
e 10 17
e 10 18
e 10 20
e 10 21
e 10 22
e 10 23
e 10 24
e 10 25
e 11 14
e 11 15
e 11 17
e 11 19
e 12 13
e 12 15
e 12 16
e 12 17
e 12 18
e 12 20
e 12 21
e 12 22
e 12 23
e 12 24
e 12 25
e 13 15
e 13 16
e 13 17
e 13 18
e 13 20
e 13 21
e 13 22
e 13 23
e 13 24
e 13 25
e 14 18
e 14 19
e 14 25
e 15 16
e 15 17
e 15 18
e 15 19
e 15 20
e 15 21
e 15 22
e 15 23
e 15 24
e 15 25
e 16 17
e 16 18
e 16 20
e 16 21
e 16 22
e 16 23
e 16 24
e 16 25
e 17 18
e 17 20
e 17 21
e 17 22
e 17 23
e 17 24
e 17 25
e 18 20
e 18 21
e 18 22
e 18 23
e 18 24
e 18 25
e 20 21
e 20 22
e 20 23
e 20 24
e 20 25
e 21 22
e 21 23
e 21 24
e 21 25
e 22 23
e 22 24
e 22 25
e 23 24
e 23 25
e 24 25
